8492.25
8492.25
8492.25
8444.33
8492.25
8492.25
8187.19
8187.19
8187.19
8453.5
8431.6
8453.5
8443.74
8443.74
8443.74
8443.74
8443.74
8443.74
8453.5
8453.5
8415.55
8453.07
8453.07
8420.57
8420.57
8453.07
8453.07
8453.07
8453.07
8453.07
8421.17
8447.28
8453.07
8403.45
8341.87
8284.63
8302
8302
8200.94
8302
8302
8445.73
8453.07
8411.53
8405.7
8309.21
8309.21
8350.23
8350.23
8350.23
8295.45
8409.39
8360.01
8360.01
7883.82
8360.01
8359.51
8329.84
8203.89
8203.89
8147.21
8147.21
8147.21
8147.21
8147.21
8138.56
8147.21
8147.21
8027.66
8049
8049
8049
8111.8
8111.03
8028.37
8028.37
7838.49
7789.13
7969.81
7865.6
7865.6
7865.6
7865.6
7826.74
8028.37
7977.48
7977.48
7868.74
8028.37
8022.31
8022.31
7996.94
7996.94
7928.26
7928.26
7928.26
7928.26
7928.26
7928.26
7928.26
7776.56
7776.56
7776.56
7912.63
7928.26
7940.26
7922.87
7922.87
7950.23
7906.25
7906.25
7906.25
7906.25
7906.25
7906.25
7945.09
7915.61
7915.61
7803.4
7836.08
7836.08
7836.08
7750.71
7718.6
7684.99
7684.99
7684.99
7684.99
7684.99
7684.99
7820.81
7820.97
7789.43
7706.7
7789.43
7789.43
7731.14
7731.14
7717.49
7717.49
7807.78
7807.78
7807.78
7821.7
7732.83
7732.83
7732.83
7732.83
7732.83
7732.83
7732.83
7817.82
7817.82
7822.34
7771.2
7765.95
7765.95
7765.95
7765.95
7765.95
7765.95
7711.63
7765.95
7765.95
7696.25
7765.95
7704.16
7704.16
7704.16
7619.18
7704.16
7756.73
7721.71
7721.71
7577.64
7679.32
7679.32
7456.5
7456.5
7456.5
7286
7456.5
7456.5
7456.5
7456.5
7456.5
7456.5
7744.61
7720.61
7598.19
7598.19
7733.78
7721.58
7723.57
7723.57
7539.96
7629.33
7629.33
7629.33
7723.57
7763.72
7763.72
7736.06
7722.22
7736.06
7706.26
7588.63
7676.23
7676.23
7676.23
7669.2
7614.7
7669.2
7678.62
7678.62
7628.16
7628.16
7628.16
7678.62
7678.62
7678.62
7678.62
7632.78
7581.65
7581.65
7620.71
7632.78
7632.78
7635.78
7591.28
7635.78
7635.78
7550.71
7635.78
7640.13
7595.09
7595.09
7523.52
7523.52
7523.52
7523.52
7588.22
7595.09
7551.28
7551.28
7492.36
7574.17
7563.92
7500.85
7548.08
7548.08
7548.08
7548.08
7541.07
7541.07
7541.07
7299.92
7504.64
7447.75
7548.08
7548.08
7548.08
7376.82
7376.82
7376.82
7376.82
7376.82
7376.82
7376.82
7376.82
7514.27
7514.27
7514.27
7514.27
7514.27
7473.09
7510.19
7510.19
7510.19
7510.19
7510.19
7545.51
7256.62
7256.62
7268.38
7323.62
7323.62
7408.35
7388.57
7388.57
7273.38
7285.94
7386.97
7386.97
7449.03
7449.03
7449.03
7449.03
7449.03
7444.51
7449.03
7449.03
7449.03
7449.03
7449.03
7289.49
7289.49
7289.49
7473.04
7428.84
7473.04
7463.23
7463.23
7413.18
7413.18
7413.18
7413.18
7413.18
7206.82
7206.82
7206.82
7206.82
7206.82
7206.82
7206.82
7197.06
7197.06
7128.52
7155.15
7155.15
7181.62
7197.06
7197.06
7197.06
7078.79
7078.79
7078.79
7206.82
7213.78
7213.78
6998.46
7213.78
7213.78
7213.78
7246.28
7272.63
7272.63
7234.95
7234.95
7234.95
7234.95
7225.29
7113.53
7113.53
7074.34
7074.34
7074.34
7074.34
7074.34
6983.78
7074.34
7050.26
7050.26
6937.78
6885.95
6885.95
6885.95
6885.95
6885.95
6885.95
7037.6
7037.6
7037.6
7037.6
7037.6
7006.71
7006.71
7006.71
7006.71
6955.11
7006.71
7006.71
6887.42
7006.71
6984.16
7006.71
6815.76
6835.14
6870.39
6870.39
6870.39
6947.31
6947.31
6809.83
6913.91
6946.73
6946.73
6946.73
6946.73
6946.73
6926.26
6902.02
6946.73
6946.73
6946.73
6990.43
6990.43
6968.45
6968.45
6968.45
6968.45
6998.64
6762.59
6733.21
6733.21
6733.21
6733.21
6733.21
6733.21
6733.21
6733.21
6733.21
6733.21
6733.21
6733.21
6733.21
6733.21
6733.21
6733.21
6733.21
6784.11
6807.02
6807.02
6679.22
6679.22
6679.22
6518.44
6518.44
6518.44
6518.44
6537.67
6537.67
6654.27
6654.27
6654.27
6654.27
6654.27
6654.27
6654.27
6632.39
6654.27
6654.27
6654.27
6602.04
6654.27
6654.27
6654.27
6654.27
6654.27
6662.75
6781.1
6781.1
6781.1
6781.1
6781.1
6781.1
6781.1
6774.59
6753.54
6781.1
6781.1
6781.1
6781.1
6781.1
6756.59
6781.1
6808.56
6808.56
6808.56
6739.47
6752.54
6752.54
6612.39
6612.39
6612.39
6612.39
6612.39
6612.39
6612.39
6612.39
6563.51
6563.51
6563.51
6563.51
6563.51
6797.85
6797.85
6778.77
6753.61
6778.77
6778.77
6778.77
6616.78
6616.78
6557.69
6711.87
6680.7
6680.7
6680.7
6680.7
6733
6733
6733
6733
6733
6733
6733
6733
6765.18
6765.18
6631.86
6640
6640
6640
6640
6765.18
6765.18
6740.39
6740.39
6740.39
6740.39
6740.39
6713.32
6740.39
6700.18
6733.96
6733.96
6765.18
6694.1
6694.1
6660
6757.49
6695.51
6695.51
6695.51
6740.83
6697.12
6697.12
6697.12
6698.74
6757.4
6751.01
6751.01
6751.01
6611.37
6637.16
6639.92
6667.41
6667.41
6667.41
6588.59
6493.08
6493.08
6493.08
6493.08
6493.08
6650
6650
6674
6692.16
6692.16
6674.96
6674.96
6674.96
6674.96
6698.36
6698.36
6634.06
6634.06
6634.06
6724.7
6724.7
6724.7
6724.7
6676.22
6676.22
6676.22
6649.33
6644.19
6644.19
6644.19
6525.06
6644.19
6676.11
6676.11
6730.23
6692
6692
6692
6692
6690.51
6666.76
6661.64
6646.13
6646.13
6646.13
6646.13
6646.13
6626.74
6626.74
6646.13
6646.13
6646.13
6577.43
6541.24
6646.13
6569.75
6569.75
6646.13
6575.39
6575.39
6575.39
6575.39
6444.12
6444.12
6444.12
6444.12
6444.12
6444.12
6444.12
6444.12
6444.12
6499.34
6555.06
6555.06
6555.06
6555.06
6555.06
6555.06
6555.06
6555.06
6555.06
6555.06
6600.45
6577.58
6577.58
6540.21
6540.21
6488.7
6540.21
6540.21
6540.21
6540.21
6540.21
6540.21
6531.31
6540.21
6644.47
6644.47
6699.86
6706.58
6697.83
6697.83
6697.83
6701.39
6574.63
6574.63
6599.82
6540.93
6588.15
6588.15
6588.15
6588.15
6588.15
6588.15
6588.15
6588.15
6588.15
6588.15
6588.15
6588.15
6588.15
6553.6
6583.99
6588.15
6574.75
6539.02
6539.02
6539.02
6539.02
6488.2
6539.02
6539.02
6539.02
6588.15
6581.34
6581.34
6588.15
6588.15
6571.83
6571.83
6571.83
6565.43
6516.36
6565.43
6505.86
6505.86
6505.86
6491.03
6491.03
6491.03
6505.86
6505.86
6505.86
6488.77
6469.83
6437.33
6437.33
6486.62
6486.62
6476.88
6486.62
6486.62
6486.62
6452.89
6486.62
6433.56
6433.56
6424.72
6424.72
6424.72
6424.72
6424.72
6424.72
6424.72
6424.72
6372.04
6372.04
6372.04
6372.04
6372.04
6372.04
6372.04
6383.6
6389.09
6389.09
6389.09
6384.74
6389.09
6389.09
6389.09
6389.09
6343.11
6389.09
6389.09
6240.31
6389.09
6389.09
6389.09
6389.09
6389.09
6389.09
6405.32
6405.32
6405.32
6405.32
6405.32
6395.57
6395.57
6395.57
6395.57
6352.41
6352.41
6352.41
6395.57
6395.57
6395.57
6425.07
6449.73
6467.77
6467.77
6408.43
6395.14
6395.14
6395.14
6407.3
6382.01
6407.3
6407.3
6407.3
6407.3
6407.3
6407.3
6407.3
6231.33
6231.33
6231.33
6231.33
6231.33
6231.33
6216.6
6192.56
6192.56
6192.56
6192.56
6192.56
6192.56
6192.56
6192.56
6192.56
6192.56
6192.56
6192.56
6223.68
6223.68
6223.68
6223.68
6074.99
6161.17
6223.68
6223.68
6223.68
6223.68
6223.68
6223.68
6223.68
6223.68
6223.68
6223.68
6228.94
6191.36
6191.36
6191.36
6191.36
6191.36
6191.36
6191.36
6240.13
6259.34
6259.34
6259.34
6259.34
6259.34
6250.56
6259.34
6259.34
6259.34
6259.34
6259.34
6207.13
6207.13
6207.13
6298.24
6099
6296.5
6298.24
6298.24
6300.31
6307.1
6247.73
6247.73
6127.71
6127.71
6127.71
6127.71
6289.2
6289.2
6042.79
6042.79
6042.79
6042.79
6042.79
6197.54
6197.54
6197.54
6197.54
6197.54
6197.54
6197.54
6158.66
6158.66
6158.66
6158.66
6197.54
6197.54
6197.54
6172.14
6197.54
6176.74
6197.54
6197.54
6197.54
6197.54
6103.4
6103.4
6192.79
6192.79
6192.79
6130.57
6163.82
6167.9
6163.11
6093.82
6093.82
6093.82
6093.82
6093.82
6093.82
6093.82
6093.82
6167.9
6019.65
6019.65
6019.65
6071.44
6152.12
6152.12
6116.4
6070.85
6070.85
6145.35
6145.35
6145.35
6145.35
6145.35
6145.35
6145.35
6099.79
6122.06
6122.06
6143.15
6143.15
6056.17
6016.21
6016.21
6056.17
6056.17
6011.67
6011.67
6011.67
5931.17
5931.17
5931.17
5931.17
5931.17
5931.17
5931.17
5931.17
5931.17
5931.17
5931.17
5931.17
5931.17
5931.17
5931.17
5931.17
6153.83
6190.86
6190.86
6189.33
6190.86
6186.77
6050.9
6050.9
6050.9
6050.9
6050.9
6050.9
6231.47
6209.92
6200.25
6200.25
6200.25
6176.53
6200.25
6093.59
6093.59
6144.46
6196.66
6153.02
6153.02
6187.32
6187.32
6187.32
6196.66
6196.66
6183.5
6209.65
6116.41
6209.65
6141.26
6197.13
6197.13
6197.13
6181.94
5956.68
5999.59
5999.59
5999.59
5999.59
5999.59
5999.59
5999.59
5999.59
5999.59
5999.59
5999.59
5999.59
5999.59
5999.59
5979.55
5999.59
5958.02
5958.02
5958.02
5958.02
5958.02
5958.02
5958.02
6028.47
6028.47
5977.82
5977.82
5977.82
5977.82
5977.82
5977.82
5977.82
5985.18
5985.18
5985.18
5985.18
5898.36
5985.18
5919.67
5919.67
5919.67
5920.04
5920.04
5920.04
5920.04
5920.04
5908.38
5908.38
5869.78
5869.78
5853.26
5853.26
6030.35
6055.45
6046.09
6069.45
6066.74
6068.81
6068.81
6044.93
6044.93
6044.93
6044.93
6044.93
6044.93
6070.79
6057
6075.25
6075.25
6040.27
6026.07
5932.25
5932.25
5932.25
5932.25
6064.88
6064.88
6044.56
6027.87
5989.14
6027.87
6027.87
6027.87
6027.87
6027.87
5975.31
6027.87
5751.33
6043.79
6043.79
6043.79
6001.8
6001.8
6001.8
5995.41
5985.19
5995.41
6053.84
6012.88
6012.88
6012.88
6012.88
6012.88
5923.45
5923.45
5923.45
6012.88
5989.53
5989.53
5989.53
5922.89
5922.89
5922.89
5922.89
5922.89
5922.89
5922.89
5922.89
5922.89
5922.89
5922.89
5922.89
5922.89
5922.89
5970.09
5947.06
5947.06
5909.11
5947.06
5947.06
5947.06
5965.33
5965.33
5998.7
5929.82
5886.53
5886.53
5886.53
5886.53
5886.53
5886.53
5820.37
5820.37
5820.37
5820.37
5820.37
5820.37
5820.37
5820.37
5820.37
5820.37
5820.37
5769.17
5769.17
5820.37
5945.26
5945.26
5945.26
5945.26
5992.84
5992.84
5992.84
5992.84
5909.86
5909.86
5931.1
5931.1
5931.1
5931.1
5994.71
5934.29
5934.29
5934.29
5976.12
5931.63
5976.12
5976.12
5950.31
5950.31
5950.31
5950.31
5900.93
5900.93
5950.31
5950.31
5950.31
5950.31
5967.7
5922.69
5922.69
5907.85
5907.85
5918.39
5918.39
5918.39
5918.39
5918.39
5918.39
5918.39
5918.39
5918.39
5918.39
5918.39
5918.39
5867.27
5918.39
5918.39
5918.39
5918.39
5843.48
5843.48
5843.48
5843.48
5843.48
5843.48
5918.39
5918.39
5918.39
5980.03
5991.38
5991.38
5991.38
5991.38
5991.38
5991.38
5991.38
5991.38
5930.28
5991.38
5991.38
5991.38
6050.06
6014.04
6050.06
6034.1
6081.38
6081.38
6081.38
6081.38
6081.38
6081.38
6081.38
6064.19
6081.38
5997.8
5997.8
5990.47
5997.8
5997.8
5997.8
5997.8
5997.8
5997.8
5997.8
5997.8
5997.8
5984.09
5978.32
5978.32
5978.32
5978.32
5978.32
5978.32
6030.5
6030.5
6030.5
6129.69
6129.69
6129.69
6129.69
6129.69
6112.68
6175.07
6175.07
6078.41
6108.93
6062.54
6062.54
6032.05
6062.54
6062.54
6062.54
5944.74
5944.74
6062.54
6163.33
6171.37
6171.37
6171.37
6171.37
6171.37
6171.37
6148.42
6171.37
6171.37
6171.37
6171.37
6171.37
6171.37
6143.42
6171.37
6097.43
6097.43
6171.37
6090.78
6153.88
6138.68
6215.19
6215.19
6130.33
6215.19
6215.19
6212.03
6215.19
6215.19
6215.19
6196.76
6183.74
6153.55
6193.07
6186.09
6139.55
6139.55
6139.55
6139.55
6139.55
6056.68
6186.09
6186.09
6191.03
6147.42
6069.58
6069.58
6069.58
6069.58
6069.58
6069.58
6069.58
6069.58
6069.58
6069.58
6069.58
6069.58
6069.58
6153.61
6153.61
6121.4
6153.61
6153.61
6153.61
6153.61
6153.61
6217.85
6217.85
6042.18
6042.18
6042.18
6042.18
6157.49
6182.57
6215.31
6205.98
6036.54
6036.54
6036.54
5981.68
5981.68
5981.68
6036.54
6036.54
6036.54
6036.54
6036.54
6105.81
6105.81
6105.81
6065.54
6065.54
6065.54
6080.79
6118.66
6118.66
6170.13
6151.9
6122.77
6122.77
6122.77
6122.77
6145.95
6145.95
6181.8
6165.65
6163.52
6163.52
6163.52
6157.08
6153.93
6093.81
6093.81
6093.81
6101.87
6101.87
6101.87
6101.87
6101.87
6101.87
6101.87
6101.87
6101.87
6101.87
6101.87
6169.1
6146.51
6146.51
6146.51
6146.51
5975.45
5975.45
6169.1
6169.1
6086.34
6169.1
6169.1
6169.1
6169.1
6174.1
6174.1
6172.43
6122.34
6122.34
6122.34
6170.27
5994.42
5994.42
5994.42
5994.42
5994.42
5994.42
5994.42
5978.43
5978.43
6090.31
6090.31
6090.31
6137.42
6137.42
6137.42
6051.67
6047.56
6051.67
6051.67
6051.67
6051.67
6051.67
6051.67
6137.42
6137.42
6089.82
6137.42
6137.42
6137.42
6137.42
6100.26
6100.26
6167.57
6080.53
6107.88
6107.88
6107.88
6129.98
6129.98
6042.31
6042.31
6042.31
6155.02
6079.79
6018.41
6079.79
6079.79
6079.79
6079.79
6079.79
6079.79
6079.79
6150.92
6150.92
6150.92
6065.48
6065.48
6065.48
6065.48
6065.48
6155.02
5987.77
6155.02
6155.02
6155.02
6155.02
6155.02
6151.73
6155.02
6060.28
6060.28
6060.28
6060.28
6058.2
6060.28
6060.28
6060.28
6060.28
6060.28
6133.99
6133.99
6148.93
6148.93
6148.93
6148.93
6137.62
6137.62
6137.62
6087.96
6011.92
6011.92
6011.92
6137.62
6137.62
6137.62
6137.62
6137.62
6137.62
6137.62
6137.62
6136.66
6136.66
6136.66
6136.66
6097.12
6136.66
6136.66
6136.66
6136.66
6136.66
6136.66
6136.66
6059.62
6059.62
6059.62
6059.62
6059.62
6059.62
6054.69
6054.69
6050.3
5959.49
5930.85
5959.49
5975.51
5831.91
5831.91
5831.91
5850.04
5850.04
5850.04
5850.04
6049.15
6049.15
6049.15
6009.52
6009.52
6009.52
6009.52
6009.52
6020.74
6049.15
6054.85
6059.62
6059.62
6004.01
6059.62
6025.08
6011.72
6011.72
6011.72
5991.35
6048.57
6048.57
5942.59
5969.72
6048.57
6029.11
6048.57
5868.58
6001.02
5981.27
5981.27
5981.27
5981.27
6034.3
6034.3
5981.82
5993.02
5993.02
5993.02
5993.02
5993.02
5993.02
5991.35
5991.35
5991.35
5957.14
5957.14
5957.14
5957.14
6034.3
6028.92
6028.92
6017.85
6043.12
6031.95
6031.95
6031.95
6031.95
5939.61
5939.61
5939.61
5939.61
5939.61
5939.61
5939.61
5939.61
5939.61
5929.73
5929.73
5896.33
5896.33
5896.33
5896.33
5896.33
5896.33
5975.73
5940.71
5975.73
5975.83
5975.83
5975.83
5975.83
5989.76
5925.46
5986.02
5986.02
5986.02
5986.02
5986.02
5986.02
5986.02
5909.76
5909.76
5909.76
5986.02
5914.41
6044.84
6044.84
5940.05
5940.05
5940.05
6056.77
6035.03
5999.17
6034.44
6056.77
6056.77
6056.77
6040.81
6061.24
6061.24
6021.32
6021.32
6021.32
6021.32
6021.32
6053.06
6053.06
6053.06
6042.84
5995.45
6012.41
5929.91
6059.52
6065.94
6039.26
6065.94
6041.48
6002.27
6002.27
6002.27
6002.27
6000.33
5794.87
5794.87
5794.87
5794.87
5794.87
5794.87
5794.87
5794.87
5903.44
5903.44
5903.44
5903.44
5903.44
5994.13
5994.13
5994.13
5994.13
5985.81
5985.81
5985.81
5787.44
5759.46
5759.46
5759.46
5759.46
5759.46
5759.46
5745.41
5745.41
5759.46
5759.46
5730.71
5716.85
5699.77
5699.77
5636.92
5636.92
5619.08
5619.08
5596.93
5596.93
5596.93
5596.93
5596.93
5586.49
5586.49
5596.93
5582.95
5582.95
5596.93
5568.75
5596.93
5596.93
5623.55
5623.55
5639.2
5639.2
5639.2
5639.2
5639.2
5617.23
5639.2
5639.2
5639.2
5639.2
5641.59
5641.59
5613.53
5613.53
5613.53
5613.53
5613.53
5613.53
5613.53
5613.53
5613.53
5613.53
5613.53
5613.53
5613.53
5610.62
5613.53
5613.53
5544.49
5600.13
5620.22
5620.22
5620.22
5645.89
5674.78
5674.78
5674.78
5674.78
5645.24
5674.78
5670.16
5670.16
5670.16
5667.52
5573.71
5573.71
5605.44
5605.44
5605.44
5605.44
5605.44
5605.44
5605.44
5605.44
5605.44
5605.44
5605.44
5605.44
5605.44
5574.76
5574.76
5574.76
5574.76
5574.76
5574.76
5574.76
5574.76
5636.83
5636.83
5669.84
5669.84
5669.84
5669.84
5669.84
5669.84
5682.51
5682.51
5593.57
5593.57
5593.57
5593.57
5593.57
5762.34
5762.34
5639.76
5762.34
5762.34
5762.34
5762.34
5691.24
5691.24
5691.24
5691.24
5691.24
5691.24
5691.24
5691.24
5618.58
5618.58
5691.24
5691.24
5691.24
5691.24
5691.24
5691.24
5691.24
5691.24
5594.51
5594.51
5594.51
5494.57
5494.57
5594.51
5518.41
5518.41
5518.41
5518.41
5518.41
5518.41
5518.41
5518.41
5518.41
5518.41
5521.96
5521.96
5521.96
5521.96
5503.4
5615.21
5666.53
5666.53
5638.7
5621.28
5638.7
5638.7
5633.53
5633.53
5633.53
5633.53
5633.53
5596.33
5596.33
5596.33
5596.33
5596.33
5594.06
5596.33
5563.46
5563.46
5596.33
5596.33
5596.33
5596.33
5596.33
5596.33
5585.76
5596.33
5617.51
5592.63
5587.72
5617.51
5544.73
5511.95
5511.95
5511.95
5544.73
5544.73
5544.73
5544.73
5544.73
5544.73
5544.73
5544.73
5544.73
5544.73
5486.01
5486.01
5544.73
5544.73
5481.93
5481.93
5485.16
5544.73
5544.73
5544.73
5544.73
5530.15
5544.73
5544.73
5544.73
5544.73
5500.25
5500.25
5500.25
5500.25
5500.25
5500.25
5580.38
5580.38
5580.38
5628.63
5635.21
5635.21
5635.21
5611.27
5611.27
5581.67
5607.44
5587.35
5587.35
5587.35
5538.34
5538.34
5538.34
5468.04
5468.04
5468.04
5468.04
5468.04
5439.24
5439.24
5439.24
5458.13
5468.36
5468.36
5468.36
5468.36
5476.89
5476.89
5476.89
5476.89
5518.02
5496.1
5518.02
5438.72
5518.02
5518.02
5475.17
5467.95
5467.95
5411.96
5487.88
5394.15
5391.85
5391.85
5483.07
5483.07
5483.07
5459.63
5378.72
5378.72
5451.38
5451.38
5451.38
5451.38
5414.84
5414.84
5414.84
5414.84
5414.84
5414.84
5443.7
5464.06
5464.06
5464.06
5384.93
5351.27
5384.93
5384.93
5466.07
5466.07
5466.07
5466.07
5434.58
5410.53
5410.53
5466.07
5466.07
5466.07
5466.07
5466.07
5486.85
5486.85
5486.85
5439.55
5486.85
5476.26
5486.85
5486.85
5486.85
5486.85
5329.62
5329.62
5329.62
5329.62
5329.62
5329.62
5329.62
5329.62
5329.62
5329.62
5329.62
5329.62
5329.62
5329.62
5329.62
5329.62
5329.62
5372.03
5372.03
5382.6
5311.17
5311.17
5363.72
5363.72
5363.72
5363.72
5363.72
5363.72
5363.72
5363.72
5133.65
5377.33
5377.33
5377.33
5377.33
5377.33
5377.33
5377.33
5377.33
5377.33
5377.33
5377.33
5377.33
5377.33
5377.33
5377.33
5377.33
5377.33
5377.33
5377.33
5377.33
5419.62
5432.4
5378.45
5378.45
5378.45
5400.15
5400.15
5400.15
5400.15
5400.15
5375.66
5384.8
5400.15
5400.15
5400.15
5400.15
5400.15
5400.15
5374.01
5374.01
5400.15
5432.4
5432.4
5432.4
5357.87
5378.28
5398.5
5398.5
5398.5
5398.5
5398.5
5398.5
5398.5
5339.13
5321.55
5234.12
5234.12
5234.12
5222.33
5234.12
5321.55
5321.55
5321.55
5321.55
5321.55
5321.55
5244.21
5244.21
5244.21
5244.21
5244.21
5396.21
5448.04
5448.04
5448.04
5448.04
5448.04
5457.18
5362.4
5461.16
5461.16
5440.89
5461.16
5432.37
5432.37
5461.16
5440.48
5440.48
5377.14
5377.14
5377.14
5419.51
5338.47
5464.98
5464.98
5407.95
5407.95
5407.95
5407.95
5407.95
5407.95
5407.95
5312.84
5312.84
5407.95
5407.95
5407.95
5407.95
5407.95
5396.41
5346.64
5407.95
5407.95
5407.95
5407.95
5407.95
5387.01
5387.01
5407.95
5407.95
5407.95
5396.79
5367.24
5367.24
5345.2
5367.24
5407.95
5396.35
5407.95
5407.95
5407.95
5407.44
5407.44
5407.44
5407.44
5336.79
5336.79
5212.34
5212.34
5407.95
5407.95
5407.95
5407.95
5448.34
5451.22
5451.22
5451.22
5451.22
5451.22
5451.22
5433.82
5451.22
5486.12
5486.12
5457.68
5457.68
5457.68
5457.68
5432.39
5432.39
5432.39
5432.39
5432.39
5432.39
5432.39
5432.39
5457.68
5433.08
5433.08
5457.68
5409.22
5409.22
5409.22
5409.22
5409.22
5409.22
5409.22
5286.91
5409.22
5409.22
5409.22
5409.22
5409.22
5409.22
5409.22
5409.22
5409.22
5429.39
5429.39
5457.68
5457.68
5465.69
5465.69
5465.69
5411.31
5453.9
5465.69
5465.69
5465.69
5465.69
5493.99
5451.43
5451.43
5414.05
5493.99
5493.99
5493.99
5439.08
5439.08
5439.08
5439.08
5393.21
5393.21
5393.21
5472.83
5472.83
5472.83
5472.83
5472.83
5543.32
5543.32
5543.32
5543.32
5530.66
5543.32
5499.94
5543.32
5543.32
5543.32
5506.37
5506.37
5506.37
5506.37
5506.37
5506.37
5506.37
5506.37
5506.37
5506.37
5543.17
5543.17
5478.98
5478.98
5538.09
5538.09
5538.09
5538.09
5538.09
5538.09
5538.09
5538.09
5538.09
5538.09
5500.2
5538.09
5538.09
5538.09
5538.09
5538.09
5538.09
5538.09
5538.09
5538.09
5538.09
5538.09
5538.09
5538.09
5538.09
5538.09
5538.09
5538.09
5538.09
5538.09
5538.09
5538.09
5538.09
5538.09
5538.09
5538.09
5538.09
5538.09
5691.12
5691.12
5691.12
5662.32
5662.32
5662.32
5662.32
5695.77
5722.27
5722.76
5713.18
5722.46
5651.28
5651.28
5651.28
5651.28
5651.28
5651.28
5651.28
5651.28
5738.59
5697.6
5697.6
5697.6
5697.6
5697.6
5712.35
5652.91
5733.84
5752.07
5752.07
5695.21
5752.07
5752.07
5752.07
5679.95
5679.95
5679.95
5656.24
5752.07
5752.07
5741.58
5752.07
5752.07
5752.07
5752.07
5752.07
5639.13
5639.13
5639.13
5639.13
5639.13
5568.56
5734.37
5701.51
5787.41
5716.2
5787.41
5787.41
5787.41
5769.19
5769.19
5769.19
5825.55
5817.27
5817.27
5800.03
5825.55
5825.55
5777.14
5777.14
5777.14
5777.14
5751.45
5751.45
5615.71
5743.54
5593.45
5593.45
5743.54
5743.54
5743.54
5743.54
5743.54
5743.54
5777.14
5777.14
5777.14
5777.14
5745.84
5727.46
5727.46
5777.14
5777.14
5777.14
5729.28
5799.64
5799.64
5759.87
5759.87
5759.87
5759.87
5759.87
5759.87
5759.87
5801.43
5634.07
5811.62
5784.87
5784.87
5768.02
5784.87
5784.87
5805.22
5833.86
5786.7
5833.86
5787.87
5787.87
5866.04
5866.04
5866.04
5844.99
5866.04
5834.12
5834.12
5851.12
5866.04
5856.09
5866.04
5826.86
5817.87
5817.87
5817.87
5817.87
5817.87
5744.59
5804.43
5804.43
5817.87
5817.87
5825.09
5825.09
5825.09
5825.09
5825.09
5812.29
5714.76
5714.76
5714.76
5714.76
5714.76
5863.33
5825.79
5825.79
5749.25
5871.9
5871.9
5871.9
5871.9
5871.9
5848.3
5848.3
5839.68
5835.21
5734.75
5734.75
5734.75
5734.75
5734.75
5865.16
5807.78
5796.75
5796.75
5807.78
5760.41
5805.95
5700.31
5700.31
5700.31
5700.31
5700.31
5700.31
5776.03
5776.03
5776.03
5776.03
5776.03
5776.03
5776.03
5776.03
5776.03
5734.22
5734.22
5734.22
5732.38
5732.38
5732.38
5732.38
5732.38
5732.38
5732.38
5732.38
5732.38
5722.45
5722.45
5722.45
5722.45
5722.45
5725.5
5725.5
5725.5
5725.5
5731.99
5731.99
5714.38
5671.76
5671.76
5671.76
5671.76
5671.76
5696.63
5696.63
5696.63
5696.63
5696.63
5639.44
5639.44
5639.44
5696.63
5696.63
5696.63
5677.66
5696.63
5696.63
5696.63
5696.63
5696.63
5696.63
5696.63
5635.84
5635.84
5635.84
5622.8
5622.8
5622.8
5635.84
5635.84
5635.84
5599.95
5547.44
5547.44
5599.95
5599.95
5599.95
5599.95
5547.16
5547.16
5547.16
5696.63
5696.63
5696.63
5643.12
5624.6
5619.57
5624.6
5624.6
5624.6
5624.6
5624.6
5624.6
5611.64
5611.64
5624.6
5515.88
5515.88
5515.88
5515.88
5515.88
5515.88
5515.88
5515.88
5515.88
5499.94
5499.94
5499.94
5499.94
5499.94
5464.33
5464.33
5515.88
5515.88
5515.88
5515.88
5515.88
5515.88
5515.88
5314.03
5345.23
5337.94
5337.94
5515.88
5515.88
5515.88
5524.52
5524.52
5524.52
5524.52
5524.52
5524.52
5524.52
5524.52
5524.52
5524.52
5524.52
5558.94
5558.94
5558.94
5558.94
5558.94
5558.94
5558.94
5558.94
5558.94
5558.94
5558.94
5558.94
5558.94
5558.94
5558.94
5558.94
5558.94
5545.32
5509.5
5509.5
5558.94
5558.94
5555.72
5532.19
5532.19
5532.19
5363.2
5532.19
5511.89
5532.19
5532.19
5478.49
5532.19
5398.37
5532.19
5532.19
5445.17
5532.19
5532.19
5532.19
5466.8
5532.19
5455
5388.35
5423.72
5423.72
5423.72
5423.72
5423.72
5423.72
5532.19
5532.19
5532.19
5532.19
5532.19
5510.49
5471.39
5532.19
5532.19
5646.64
5648.59
5632.25
5632
5632.25
5601.45
5601.45
5532.92
5532.92
5601.45
5517.17
5517.17
5517.17
5517.17
5517.17
5517.17
5517.17
5517.17
5517.17
5517.17
5517.17
5517.17
5517.17
5421.33
5421.33
5421.33
5421.33
5421.33
5383.37
5421.33
5421.33
5421.33
5421.33
5421.33
5421.33
5421.33
5421.33
5504.31
5590.45
5590.45
5578.7
5578.7
5543.47
5539.99
5539.99
5539.99
5539.99
5520.47
5449.49
5449.49
5449.49
5449.49
5421.59
5394
5394
5394
5394
5394
5394
5394
5394
5394
5372.05
5372.05
5452.52
5419.85
5489.55
5462.86
5462.86
5462.86
5462.86
5429.08
5462.86
5462.86
5373.3
5373.3
5373.3
5373.3
5432.43
5476.18
5480.32
5480.32
5480.32
5480.32
5477.26
5453.53
5366.64
5480.32
5409.74
5409.74
5371.29
5447.61
5393.32
5393.32
5393.32
5352.5
5352.5
5410.6
5410.6
5410.6
5410.6
5286.59
5286.59
5480.32
5441.69
5418.01
5405.32
5405.32
5418.01
5418.01
5410.94
5342.34
5342.34
5342.34
5342.34
5342.34
5342.34
5342.34
5342.34
5329.19
5329.19
5329.19
5329.19
5152.89
5152.89
5152.89
5152.89
5152.89
5152.89
5152.89
5152.89
5152.89
5152.89
5152.89
5152.89
5152.89
5152.89
5152.89
5152.89
5152.89
5372.74
5372.74
5372.74
5372.74
5372.74
5372.74
5372.74
5372.74
5371.62
5371.62
5348.68
5370.69
5319.7
5319.7
5319.7
5319.7
5319.7
5319.7
5319.7
5319.7
5319.7
5263.59
5263.59
5263.59
5263.59
5263.59
5319.7
5319.7
5319.7
5301.03
5319.7
5307.69
5307.69
5303.22
5307.69
5247.04
5325.29
5325.29
5325.29
5325.29
5325.29
5316.27
5316.27
5316.27
5316.27
5316.27
5316.27
5316.27
5316.27
5316.27
5298.72
5298.72
5372.74
5372.74
5210.65
5210.65
5372.74
5344.33
5283.01
5277.54
5277.54
5234.13
5234.13
5270.87
5250.3
5277.54
5277.54
5221.07
5221.07
5221.07
5171.78
5171.78
5277.54
5277.54
5277.54
5277.54
5277.54
5277.54
5277.54
5277.54
5277.54
5277.54
5268.22
5253.53
5253.53
5253.53
5277.54
5277.54
5206.22
5206.22
5274.38
5274.38
5274.38
5274.38
5277.54
5187.42
5250.52
5254.69
5254.69
5254.69
5254.69
5254.69
5254.69
5271.87
5271.87
5207.35
5271.87
5271.87
5271.87
5254.64
5271.87
5271.87
5271.87
5271.87
5271.87
5271.87
5271.87
5271.87
5271.87
5271.87
5271.87
5271.87
5299.26
5276.27
5273.83
5276.27
5276.27
5276.27
5299.26
5294.44
5299.26
5278.1
5278.1
5278.1
5302.68
5302.68
5302.68
5302.68
5279.96
5302.68
5302.68
5302.68
5302.68
5257.29
5257.29
5330.48
5305.49
5305.49
5305.49
5288.86
5257.84
5257.84
5257.84
5295.93
5295.93
5295.93
5298.73
5298.73
5298.73
5239.47
5298.73
5298.73
5298.73
5275.87
5298.73
5298.73
5297.56
5297.56
5297.56
5297.56
5380
5380
5380
5351.96
5187.04
5187.04
5368.66
5368.08
5272.23
5272.23
5272.23
5272.23
5272.23
5272.23
5272.23
5371.68
5330.76
5330.76
5360.42
5365.36
5371.68
5371.68
5371.68
5371.68
5285.69
5285.69
5285.69
5285.69
5285.69
5379.16
5379.16
5379.16
5257.09
5257.09
5257.09
5257.09
5257.09
5257.09
5257.09
5257.09
5257.09
5257.09
5257.09
5257.09
5257.09
5402.41
5347.34
5227.94
5227.94
5227.94
5389.14
5389.14
5389.14
5389.14
5389.14
5402.41
5293.76
5293.76
5293.76
5293.76
5293.76
5402.41
5402.41
5355.46
5355.46
5402.41
5402.41
5402.41
5402.41
5407.89
5407.89
5407.89
5456.94
5474.84
5410.3
5410.3
5410.3
5392.43
5392.43
5392.43
5410.3
5410.3
5410.3
5410.3
5410.3
5410.3
5410.3
5410.3
5410.3
5410.3
5410.3
5410.3
5410.3
5410.3
5410.3
5410.3
5410.3
5410.3
5410.3
5314.38
5314.38
5314.38
5313.92
5313.92
5313.92
5313.92
5313.92
5410.3
5410.3
5410.3
5410.3
5357.04
5410.3
5410.3
5410.3
5410.3
5410.3
5362.62
5362.62
5337.79
5362.62
5362.62
5362.62
5362.62
5393.14
5256.86
5442.71
5442.71
5425.91
5425.91
5425.91
5425.91
5425.91
5425.91
5425.91
5425.91
5425.91
5425.91
5425.91
5425.91
5425.91
5409.28
5409.28
5459.01
5412.62
5412.62
5412.62
5412.62
5412.62
5412.62
5412.62
5412.62
5412.62
5412.62
5412.62
5412.62
5412.62
5391.66
5437.38
5437.38
5437.38
5437.38
5437.38
5422.44
5359.62
5359.62
5359.62
5359.62
5345.63
5345.63
5345.63
5345.63
5266.51
5345.63
5345.63
5338.38
5338.38
5338.38
5338.38
5338.38
5287.44
5334.96
5338.38
5338.38
5338.38
5338.38
5338.38
5402.5
5402.5
5348.47
5402.5
5406.27
5406.27
5406.27
5406.27
5406.27
5406.27
5315.32
5406.27
5406.27
5406.27
5406.27
5406.27
5406.27
5339.26
5339.26
5406.27
5367.27
5367.27
5367.27
5354.7
5354.7
5367.27
5367.27
5367.27
5367.27
5367.27
5367.27
5367.27
5367.27
5367.27
5367.27
5367.27
5367.27
5367.27
5338.04
5338.04
5367.27
5367.27
5367.27
5367.27
5379.61
5471.02
5448.69
5448.69
5448.69
5448.69
5448.69
5448.69
5448.69
5448.69
5448.69
5448.69
5427.23
5427.23
5448.69
5448.69
5527.67
5467.01
5527.67
5471.93
5471.93
5471.93
5471.93
5471.93
5469.79
5469.79
5469.79
5469.79
5469.79
5426.04
5426.04
5469.79
5469.79
5462.2
5462.2
5373.07
5462.2
5329.51
5462.2
5462.2
5462.2
5462.2
5462.2
5393.54
5393.54
5393.54
5393.54
5444.36
5444.36
5457.86
5457.86
5435.02
5435.02
5435.02
5435.02
5444.49
5332.03
5444.49
5364.23
5390.56
5409.77
5413.22
5413.22
5383.54
5383.54
5413.22
5413.22
5413.22
5340.46
5340.46
5340.46
5340.46
5340.46
5340.46
5340.46
5284.89
5284.89
5284.89
5288.33
5288.33
5288.33
5288.33
5061.34
5060.84
5061.34
5061.34
5061.34
5061.34
5061.34
5061.34
5061.34
5061.34
5061.34
5009.2
5061.34
5061.34
5061.34
4822.41
4998.89
5061.34
5061.34
5061.34
5061.34
4976.11
4976.11
4976.11
4976.11
4976.11
4976.11
4976.11
4976.11
5025.83
5025.83
5025.83
4987.68
4987.49
4958.77
4987.49
4987.49
5025.83
5062.37
5062.37
5062.37
5062.37
5062.37
5062.37
5090.75
5090.75
5111.42
5101.04
5101.04
5145.94
5145.94
5145.94
5164.37
5164.37
5164.37
5097.99
5097.99
5077.07
5077.07
5077.07
5077.07
5077.07
5077.07
5077.07
4989.62
5077.07
5077.07
5077.07
5097.99
5097.99
5097.99
5097.99
5097.99
5162.52
4919.46
5068.57
5061.18
5061.18
5061.18
5061.18
5061.18
5061.18
5061.18
5061.18
5061.18
4987.85
4987.85
4987.85
4987.85
4987.85
4882.92
4882.92
5094.49
5094.49
5066.47
5053.22
4990.54
5000.09
5066.47
5066.47
5066.47
5066.47
5066.47
5065.18
5065.18
5065.18
5065.18
5065.18
5065.18
5065.18
5047.9
5047.9
5047.9
5047.9
4960.1
5047.9
5047.9
5034.36
5034.36
5034.36
5034.36
5034.36
5054.08
5054.08
5054.08
5063.41
5029.13
5029.13
5065.18
5065.18
5065.18
5065.18
5029.3
5065.18
5065.18
5065.18
5034.65
5065.18
5061.12
5022.49
5022.49
5022.49
5002.61
4868.97
5002.61
4978.74
4959.81
4978.74
5022.49
5022.49
5022.49
5022.49
5022.49
5022.49
5022.49
5022.49
4924.72
4966.4
5022.49
5022.49
5022.49
5022.49
5022.49
5022.49
5022.49
5022.49
4992.89
4992.89
5022.49
5022.49
5022.49
5022.49
5019.06
5022.49
5022.49
5022.49
5022.49
5022.49
5022.49
5022.49
5022.49
5022.49
5022.49
5022.49
5022.49
5022.49
5022.49
5022.49
5022.49
5022.49
5022.49
5022.49
5022.49
5022.49
5022.49
4973.46
4945.22
4945.22
4945.22
4973.46
4973.46
5017.8
5017.8
5022.49
5079.99
5027.69
5028.73
5028.73
5028.73
5134.09
5134.09
5134.09
5134.09
5134.09
5134.09
5134.09
5134.09
5134.09
5134.09
5134.09
5066.68
5066.68
5066.68
5066.68
5066.68
5023.68
5023.68
5023.68
5023.68
5023.68
5023.68
5023.68
5023.68
5023.68
5023.68
5006.32
5006.32
4969.38
4969.38
4969.38
4969.38
4982.29
4982.29
4982.29
4982.29
4982.29
4982.29
5023.68
4972.19
5023.68
5023.68
5023.68
5023.68
5023.68
5023.68
5023.68
5023.68
5023.68
5023.68
5015.42
5001.87
5023.68
5023.68
5023.68
4877.01
5023.68
4969.24
4969.24
4981.22
4981.22
4981.22
4981.22
4981.22
4981.22
4981.22
4981.22
4981.22
4981.22
4998.92
4998.92
4998.92
4998.92
4998.92
4998.92
4961.21
4961.21
4961.21
4961.21
4961.21
4961.21
4961.21
4961.21
4961.21
4961.21
4994.41
4994.41
4956.3
4956.3
4956.3
4970.5
4970.5
4970.5
4970.5
4970.5
4970.5
4955.15
4955.15
4955.15
4955.15
4955.15
4831
4831
4831
4831
4775.62
4775.62
4775.62
4775.62
4775.62
4775.62
4748.04
4748.04
4748.04
4775.02
4775.62
4775.62
4775.62
4775.62
4775.62
4831
4831
4831
4831
4859.36
4948.66
4948.66
4948.66
4841.75
4841.75
4841.75
4841.75
4841.75
4841.75
4841.75
4841.75
4906.54
4906.54
4906.54
4807.04
4891.75
4877.32
4877.32
4877.32
4731.07
4731.07
4731.07
4731.07
4731.07
4731.07
4731.07
4731.07
4731.07
4840.07
4844.1
4844.1
4855.58
4855.58
4824.58
4856.93
4856.93
4856.93
4856.93
4856.93
4850.16
4850.16
4850.16
4837.14
4837.14
4837.14
4823.97
4800.37
4800.37
4823.97
4823.97
4823.97
4823.97
4837.14
4837.14
4837.92
4837.92
4837.92
4837.92
4866.56
4914.86
4914.86
4914.86
4914.86
4914.86
4914.86
4900.68
4900.68
4914.86
4914.86
4914.86
4895.26
4914.86
4881.89
4867.73
4864.05
4864.05
4840.01
4867.44
4880.99
4938.1
4938.1
4938.1
4938.1
4938.1
4938.1
4990.87
4991.84
4941.15
4926.85
4926.85
4931.06
4921.79
4783.37
4899.75
4899.75
4899.75
4899.75
4899.75
4899.75
4872.44
4872.44
4872.44
4872.44
4872.44
4872.44
4872.44
4872.44
4804.14
4804.14
4804.14
4804.14
4804.14
4804.14
4804.14
4804.14
4836.14
4891.51
4891.51
4891.51
4962.38
4962.38
4962.38
4962.38
4962.38
4962.38
4962.38
4948.98
4948.98
4936
4936
4936
4905.64
4934.3
4922.52
4922.52
4964.4
4964.4
4964.4
4964.4
4964.4
4961.03
4960.87
4894.91
4894.91
4894.91
4894.91
4894.91
4894.91
4894.91
4894.91
4894.91
4894.91
4964.4
4958.7
4964.4
4964.4
4933.17
4898.11
4900.31
4900.31
4933.17
4933.17
4933.17
4933.17
4933.17
4933.17
4857.69
4964.4
4964.4
4964.4
4964.4
4964.4
4963.59
4963.59
4963.59
4963.59
4963.59
4963.59
4963.59
4938.73
4961.35
4961.35
4961.35
4963.59
4964.4
4964.4
4964.4
4964.4
4964.4
4956
4956
4956
4956
4956
4932.74
4964.4
4951.46
4930.79
4877.92
4877.92
4877.92
4877.92
4877.92
4932.04
4948.3
4948.3
4948.3
4865.72
4865.72
4948.3
4951.46
4951.46
4946.34
4945.06
4964.4
4964.4
4964.4
4960.54
4938.36
4954.9
4969.19
4867.28
4871.25
4871.25
4871.25
4871.25
4871.25
4871.25
4871.25
4871.25
4871.25
4871.25
4871.25
4871.25
4871.25
4905.98
4905.98
4906.49
4906.49
4834.1
4892.83
4634.32
4634.32
4634.32
4634.32
4634.32
4634.32
4634.32
4634.32
4634.32
4634.32
4634.32
4634.32
4634.32
4634.32
4541.42
4541.42
4541.42
4541.42
4541.42
4541.42
4541.42
4541.42
4541.42
4541.42
4541.42
4541.42
4541.42
4541.42
4541.42
4541.42
4541.42
4541.42
4541.42
4541.42
4541.42
4541.42
4541.42
4541.42
4541.42
4566.04
4602.25
4648.34
4648.34
4648.34
4648.34
4648.34
4648.34
4648.34
4648.34
4648.34
4648.34
4648.34
4648.34
4648.34
4648.34
4648.34
4648.34
4648.34
4648.34
4648.34
4648.34
4648.34
4648.34
4648.34
4648.34
4620.65
4620.65
4620.65
4620.65
4651.62
4595.45
4563.72
4563.72
4595.45
4583.19
4595.45
4595.45
4595.45
4595.45
4593.25
4593.25
4593.25
4593.25
4593.25
4593.25
4595.45
4595.45
4641.56
4641.56
4641.56
4641.56
4641.56
4641.56
4641.56
4641.56
4641.56
4641.56
4619.8
4638.7
4638.7
4638.7
4634.37
4634.37
4634.37
4634.37
4634.37
4600.21
4600.21
4600.21
4600.21
4600.21
4600.21
4600.21
4600.21
4600.21
4638.7
4638.7
4638.7
4641.56
4641.56
4641.56
4641.56
4641.56
4604.24
4641.56
4641.56
4623.97
4623.97
4623.97
4623.97
4606.23
4606.23
4606.23
4623.97
4589.01
4623.97
4582.41
4582.41
4582.41
4582.41
4582.41
4582.41
4582.41
4582.41
4582.41
4582.41
4582.41
4582.41
4582.41
4582.41
4582.41
4582.41
4582.41
4582.41
4582.41
4515.42
4582.41
4582.41
4582.41
4538.12
4538.12
4538.12
4538.12
4538.12
4538.12
4582.41
4582.41
4529.45
4529.45
4582.41
4559.7
4559.7
4559.7
4559.7
4559.7
4559.7
4559.7
4477.58
4477.58
4477.58
4477.58
4477.58
4477.58
4548.42
4548.42
4548.42
4548.42
4548.42
4548.42
4548.42
4548.42
4548.42
4559.7
4559.7
4559.7
4569.25
4582.41
4582.41
4582.41
4582.41
4582.41
4582.41
4592.41
4592.41
4592.41
4592.41
4592.41
4592.41
4592.41
4592.41
4592.41
4584.56
4592.41
4578.62
4515.72
4515.72
4477.14
4515.72
4515.72
4515.72
4515.72
4515.72
4515.72
4515.72
4515.72
4515.72
4578.32
4592.41
4592.41
4603.32
4603.32
4607.35
4607.35
4559.43
4559.43
4559.43
4559.43
4559.43
4559.43
4559.43
4559.43
4559.43
4559.43
4559.43
4559.43
4559.43
4559.43
4559.43
4559.43
4559.43
4559.43
4559.43
4559.43
4559.43
4559.43
4633.68
4633.68
4646.2
4646.2
4646.2
4646.2
4516.79
4516.79
4559.68
4559.68
4559.68
4559.68
4634.51
4634.51
4639.69
4592.59
4592.59
4592.59
4592.59
4592.59
4592.59
4592.59
4592.59
4592.59
4592.59
4592.59
4592.59
4592.59
4630.61
4630.61
4559.45
4559.45
4552.06
4552.06
4559.45
4559.45
4559.45
4576.84
4576.84
4576.84
4630.61
4630.61
4630.61
4631.1
4631.1
4631.1
4631.1
4631.1
4631.1
4631.1
4654.68
4654.68
4654.68
4654.68
4654.68
4654.68
4654.68
4654.68
4654.68
4621.24
4714.96
4714.96
4631.61
4631.61
4700.78
4700.78
4700.78
4700.78
4700.78
4700.78
4700.78
4646.22
4710.1
4710.1
4710.1
4693.19
4693.19
4670.53
4640.4
4670.53
4670.53
4670.53
4670.53
4635.43
4639.06
4639.06
4582.22
4582.22
4617.5
4617.5
4617.5
4629.04
4633.34
4633.34
4508.26
4676.93
4676.93
4676.93
4676.93
4662.75
4662.75
4662.75
4614.6
4614.6
4614.6
4614.6
4614.6
4614.6
4614.6
4609.3
4745.25
4745.25
4745.25
4745.25
4745.25
4745.25
4741.42
4741.42
4741.42
4741.42
4747.12
4747.12
4747.12
4747.12
4747.12
4602.43
4602.43
4680.81
4680.81
4747.12
4747.12
4683.29
4747.12
4747.12
4726.26
4726.26
4726.26
4671.47
4671.47
4671.47
4671.47
4671.47
4671.47
4671.47
4671.47
4671.47
4671.47
4671.47
4671.47
4671.47
4671.47
4671.47
4671.47
4770.07
4726.42
4726.42
4726.42
4770.23
4770.23
4770.23
4770.23
4783.71
4783.71
4783.71
4783.71
4812.26
4776.31
4776.31
4776.31
4807.47
4763.09
4688.61
4688.61
4789.81
4807.47
4807.47
4807.47
4807.47
4807.47
4807.47
4774.48
4819.18
4819.18
4819.18
4819.18
4786.94
4765.3
4819.18
4819.18
4819.18
4817.26
4819.18
4819.18
4819.18
4819.18
4819.18
4819.18
4819.18
4849.46
4849.46
4849.46
4849.46
4849.46
4893.38
4893.38
4893.38
4707.65
4707.65
4707.65
4707.65
4691.91
4691.91
4691.91
4691.91
4691.91
4691.91
4691.91
4691.91
4691.91
4691.91
4691.91
4691.91
4691.91
4691.91
4691.91
4691.91
4691.91
4691.91
4691.91
4691.91
4691.91
4691.91
4691.91
4691.91
4691.91
4691.91
4691.91
4691.91
4691.91
4691.91
4691.91
4666.02
4666.02
4666.02
4691.91
4649.71
4649.71
4649.71
4649.71
4649.71
4649.71
4649.71
4649.71
4649.71
4654.8
4654.8
4649.45
4649.45
4649.45
4649.45
4649.45
4649.45
4601.36
4649.45
4649.45
4625.99
4625.99
4649.45
4646.74
4646.74
4646.74
4654.8
4629.44
4654.8
4654.8
4654.8
4635.24
4652.16
4638
4638
4638
4652.16
4604.93
4652.16
4652.16
4587.21
4587.21
4587.21
4587.21
4587.21
4574.63
4587.21
4587.21
4587.21
4587.21
4587.21
4587.21
4587.21
4587.21
4587.21
4587.21
4587.21
4587.21
4563.63
4587.21
4587.21
4587.21
4569.98
4569.98
4577.15
4577.15
4577.15
4551
4551
4553.33
4577.15
4587.21
4573.61
4573.61
4573.61
4554.33
4587.21
4587.21
4587.21
4547.66
4587.21
4587.21
4587.21
4587.21
4587.21
4587.21
4587.21
4587.21
4587.21
4536.28
4587.21
4587.21
4587.21
4587.21
4587.21
4587.21
4587.21
4514.31
4514.31
4514.31
4514.31
4514.31
4514.31
4514.31
4514.31
4514.31
4514.31
4579.91
4579.91
4579.91
4579.91
4579.91
4579.91
4579.91
4579.91
4579.91
4579.91
4557.82
4557.82
4557.82
4600.76
4600.76
4521.14
4521.14
4521.14
4521.14
4519.46
4519.46
4521.14
4521.14
4521.14
4521.14
4521.14
4544.02
4544.02
4544.02
4544.02
4526.92
4526.92
4526.92
4526.92
4526.92
4526.92
4555.93
4555.93
4555.93
4555.16
4555.93
4555.93
4555.93
4555.93
4555.93
4498.17
4498.17
4498.17
4498.17
4498.17
4498.17
4498.17
4520.69
4520.69
4520.69
4520.69
4511.54
4478.4
4555.93
4555.93
4555.93
4555.93
4555.93
4551.97
4475.77
4475.77
4475.77
4475.77
4581.04
4581.04
4595.25
4573.16
4518.81
4518.81
4573.16
4573.16
4573.16
4573.16
4573.16
4573.16
4573.16
4573.16
4573.16
4573.16
4573.16
4573.16
4573.16
4573.16
4573.16
4573.16
4573.16
4605.12
4623.96
4598.65
4623.96
4497.67
4497.67
4497.67
4497.67
4623.96
4623.96
4623.96
4623.96
4623.96
4623.96
4623.96
4623.96
4609.55
4609.55
4609.55
4609.55
4609.55
4623.96
4623.96
4649.36
4583.79
4649.36
4649.36
4649.36
4649.36
4649.36
4649.36
4649.36
4624.93
4624.93
4595.77
4595.77
4639.08
4649.36
4649.36
4649.36
4649.36
4649.36
4642.86
4649.36
4649.36
4649.36
4622.27
4622.27
4622.27
4622.27
4649.36
4649.36
4649.36
4649.36
4649.36
4649.36
4632.78
4632.78
4632.78
4632.78
4632.78
4632.78
4632.78
4632.78
4632.78
4632.78
4632.78
4581.29
4581.29
4632.78
4632.78
4632.78
4632.78
4632.78
4632.78
4632.78
4632.78
4632.78
4632.78
4632.78
4632.78
4632.78
4632.78
4632.78
4576.59
4632.78
4632.78
4632.78
4632.78
4615.93
4591.31
4591.31
4591.31
4591.31
4612.9
4612.9
4612.9
4612.9
4612.9
4632.78
4573.85
4573.85
4573.85
4565.54
4565.54
4565.54
4565.54
4632.78
4632.78
4626.31
4626.31
4672.45
4672.45
4672.45
4672.45
4672.45
4672.45
4672.45
4695.25
4687.74
4659.77
4659.77
4659.77
4659.77
4659.77
4695.25
4695.25
4695.25
4695.25
4684.02
4684.02
4576.38
4576.38
4614.57
4614.57
4614.57
4621.19
4621.19
4684.02
4684.02
4684.02
4684.02
4684.02
4684.02
4634.23
4663.73
4663.73
4663.73
4663.73
4652.44
4663.73
4663.73
4580.66
4580.66
4580.66
4580.66
4580.66
4580.66
4580.66
4580.66
4580.66
4580.66
4592.12
4592.12
4592.12
4592.12
4592.12
4592.12
4539
4592.12
4592.12
4592.12
4587.63
4592.12
4592.12
4562.57
4562.57
4592.12
4592.12
4592.12
4592.12
4592.12
4592.12
4592.12
4581.7
4581.7
4581.7
4581.7
4581.7
4581.7
4581.7
4581.7
4581.7
4581.7
4581.7
4581.7
4581.7
4581.7
4581.7
4581.7
4557.55
4557.55
4494.5
4494.5
4494.5
4494.5
4494.5
4494.5
4494.5
4494.5
4494.5
4494.5
4494.5
4494.5
4494.5
4494.5
4494.5
4494.5
4590.81
4590.81
4606.09
4606.09
4606.09
4606.09
4606.09
4561.96
4606.09
4606.09
4606.09
4597.15
4597.15
4597.15
4597.15
4597.15
4597.15
4597.15
4597.15
4597.15
4597.15
4597.15
4597.15
4616.98
4616.98
4616.98
4616.98
4616.98
4616.98
4616.98
4616.98
4616.98
4616.98
4616.98
4616.98
4643.83
4558.16
4643.83
4643.83
4643.83
4536.7
4553.74
4553.74
4624.39
4624.39
4634.99
4634.99
4640.84
4640.84
4640.84
4640.84
4621.65
4578.36
4612.62
4621.65
4622.8
4631.14
4630.49
4628.82
4630.49
4630.49
4640.84
4640.84
4640.84
4640.84
4615.87
4660.65
4660.65
4660.65
4660.65
4660.65
4630.97
4657.57
4665.35
4665.35
4665.35
4557.09
4669.21
4691.29
4691.29
4691.29
4691.29
4691.29
4691.29
4691.29
4691.29
4667.63
4667.63
4680.7
4677.24
4677.24
4691.29
4688.39
4645.36
4691.29
4691.29
4691.29
4691.29
4691.29
4689.73
4689.73
4689.73
4680.17
4635.09
4635.09
4635.09
4606.69
4606.69
4542.32
4542.32
4563.73
4563.73
4563.73
4563.73
4563.73
4557.56
4557.56
4563.73
4563.73
4563.73
4563.73
4532.32
4563.73
4563.73
4563.73
4563.73
4563.73
4563.73
4563.73
4563.73
4563.73
4563.73
4563.73
4563.73
4563.73
4563.73
4563.73
4563.73
4563.73
4563.73
4563.73
4563.73
4563.73
4563.73
4563.73
4563.73
4563.73
4507.62
4507.62
4507.62
4507.62
4507.62
4507.62
4507.62
4507.62
4507.62
4507.62
4507.62
4507.62
4507.62
4507.62
